20 120
1 2
1 3
1 4
1 5
1 6
1 11
1 12
1 13
1 15
1 16
1 18
1 20
2 3
2 4
2 6
2 8
2 9
2 11
2 13
2 15
2 19
2 20
3 5
3 7
3 8
3 9
3 10
3 11
3 12
3 13
3 14
3 15
3 16
3 17
3 19
4 5
4 6
4 7
4 8
4 9
4 11
4 13
4 19
4 20
5 6
5 7
5 8
5 9
5 10
5 16
5 19
5 20
6 8
6 9
6 11
6 12
6 13
6 14
6 15
6 18
6 19
7 8
7 9
7 11
7 12
7 13
7 15
7 16
7 18
7 19
7 20
8 9
8 10
8 11
8 12
8 13
8 15
8 19
8 20
9 10
9 11
9 16
9 20
10 15
10 16
10 18
10 19
10 20
11 12
11 13
11 14
11 15
11 16
11 17
11 18
11 19
11 20
12 13
12 14
12 15
12 16
12 17
12 18
12 19
12 20
13 18
13 19
13 20
14 15
14 16
14 17
14 18
15 19
16 17
16 18
16 19
16 20
17 20
18 19
18 20
19 20
